NAME : ftv44Preorder.1123.tour
COMMENT : Length = 1123
COMMENT : Found by LKH [Keld Helsgaun] Sun Apr 19 19:25:40 2020
TYPE : TOUR
DIMENSION : 45
TOUR_SECTION
1
2
3
32
31
30
25
43
24
23
19
17
18
16
13
14
44
12
11
15
20
22
21
8
10
9
41
7
42
40
39
36
33
29
26
27
28
34
35
37
38
45
4
5
6
-1
EOF
